c solution = True
p edge 100 99
e 2 1 1
e 17 1 1
e 18 1 1
e 25 1 1
e 28 1 1
e 34 1 1
e 37 28 1
e 38 37 1
e 49 37 1
e 63 37 1
e 50 49 1
e 83 49 1
e 96 49 1
e 92 83 1
e 60 50 1
e 64 60 1
e 72 64 1
e 44 38 1
e 55 38 1
e 56 38 1
e 80 56 1
e 82 80 1
e 87 82 1
e 91 87 1
e 47 44 1
e 58 44 1
e 57 47 1
e 84 57 1
e 93 84 1
e 97 84 1
e 98 97 1
e 31 18 1
e 46 31 1
e 54 46 1
e 86 54 1
e 19 17 1
e 27 17 1
e 32 17 1
e 33 27 1
e 36 27 1
e 51 27 1
e 53 51 1
e 77 51 1
e 61 53 1
e 79 53 1
e 67 61 1
e 68 67 1
e 81 67 1
e 88 67 1
e 59 36 1
e 20 19 1
e 30 20 1
e 39 20 1
e 70 30 1
e 76 70 1
e 3 2 1
e 5 2 1
e 6 5 1
e 9 5 1
e 12 5 1
e 95 9 1
e 8 6 1
e 40 6 1
e 85 6 1
e 45 40 1
e 73 40 1
e 75 73 1
e 78 45 1
e 13 8 1
e 35 13 1
e 4 3 1
e 15 3 1
e 23 15 1
e 24 23 1
e 29 23 1
e 43 29 1
e 65 43 1
e 90 43 1
e 89 65 1
e 94 65 1
e 100 94 1
e 99 89 1
e 26 24 1
e 41 24 1
e 42 41 1
e 74 41 1
e 48 42 1
e 66 48 1
e 62 26 1
e 7 4 1
e 10 4 1
e 11 10 1
e 14 10 1
e 16 10 1
e 21 10 1
e 22 21 1
e 71 22 1
e 52 16 1
e 69 16 1
